%NPROC=6
%MEM=6024MB
# B3LYP/6-311+G* NMR=GIAO POP=FULL SCF(MAXCYCLE=512)

Pyrrole # Center 1

0 1
6   0.25350   -1.15506   -0.00002
6   1.17634   -0.13392   0.00002
6   0.45421   1.09334   -0.00010
6   -0.88659   0.78256   0.00008
7   -0.99748   -0.58690   0.00001
1   -1.86418   -1.09687   -0.00010
1   0.38049   -2.22657   -0.00001
1   2.24993   -0.25349   0.00004
1   0.87109   2.08990   -0.00017
1   -1.76159   1.41396   0.00015
bq     -0.00000     -0.00000     -2.00000
bq     -0.00000     -0.00000     -1.80000
bq     -0.00000     -0.00000     -1.60000
bq     -0.00000     -0.00000     -1.40000
bq     -0.00000     -0.00000     -1.20000
bq     -0.00000     -0.00000     -1.00000
bq     -0.00000     -0.00000     -0.80000
bq     -0.00000     -0.00000     -0.60000
bq     -0.00000     -0.00000     -0.40000
bq     -0.00000     -0.00000     -0.20000
bq     -0.00000     -0.00000     -0.00000
bq     -0.00000     -0.00000     0.20000
bq     -0.00000     -0.00000     0.40000
bq     -0.00000     -0.00000     0.60000
bq     -0.00000     -0.00000     0.80000
bq     -0.00000     -0.00000     1.00000
bq     -0.00000     -0.00000     1.20000
bq     -0.00000     -0.00000     1.40000
bq     -0.00000     -0.00000     1.60000
bq     -0.00000     -0.00000     1.80000

