%NPROC=6
%MEM=6024MB
# B3LYP/6-311+G* NMR=GIAO POP=FULL SCF(MAXCYCLE=512)

---------------------------------------------- # Center 1

0 1
6   -1.20726   0.69701   -0.00000
6   -1.20726   -0.69701   0.00000
6   0.00000   -1.39402   0.00000
6   1.20726   -0.69701   0.00000
6   1.20726   0.69701   -0.00000
6   0.00000   1.39402   -0.00000
1   0.00000   2.47959   -0.00000
1   2.14738   1.23980   -0.00000
1   2.14739   -1.23979   0.00000
1   -0.00000   -2.47959   0.00000
1   -2.14738   -1.23980   0.00000
1   -2.14739   1.23979   -0.00000
1   -1.28274   0.74059   -0.99620
1   0.00000   -1.48118   -0.99619
1   1.28274   0.74059   -0.99620
1   -1.28274   -0.74059   -0.99620
1   1.28274   -0.74059   -0.99620
1   0.00000   1.48118   -0.99620
bq     -0.00000     -0.00000     0.00000
bq     -0.00000     -0.00000     0.10000
bq     -0.00000     -0.00000     0.20000
bq     -0.00000     -0.00000     0.30000
bq     -0.00000     -0.00000     0.40000
bq     -0.00000     -0.00000     0.50000
bq     -0.00000     -0.00000     0.60000
bq     -0.00000     -0.00000     0.70000
bq     -0.00000     -0.00000     0.80000
bq     -0.00000     -0.00000     0.90000
bq     -0.00000     -0.00000     1.00000
bq     -0.00000     -0.00000     1.10000
bq     -0.00000     -0.00000     1.20000
bq     -0.00000     -0.00000     1.30000
bq     -0.00000     -0.00000     1.40000
bq     -0.00000     -0.00000     1.50000
bq     -0.00000     -0.00000     1.60000
bq     -0.00000     -0.00000     1.70000
bq     -0.00000     -0.00000     1.80000
bq     -0.00000     -0.00000     1.90000
bq     -0.00000     -0.00000     2.00000
bq     -0.00000     -0.00000     2.10000
bq     -0.00000     -0.00000     2.20000
bq     -0.00000     -0.00000     2.30000
bq     -0.00000     -0.00000     2.40000
bq     -0.00000     -0.00000     2.50000
bq     -0.00000     -0.00000     2.60000
bq     -0.00000     -0.00000     2.70000
bq     -0.00000     -0.00000     2.80000
bq     -0.00000     -0.00000     2.90000
bq     -0.00000     -0.00000     3.00000
bq     -0.00000     -0.00000     3.10000
bq     -0.00000     -0.00000     3.20000
bq     -0.00000     -0.00000     3.30000
bq     -0.00000     -0.00000     3.40000
bq     -0.00000     -0.00000     3.50000
bq     -0.00000     -0.00000     3.60000
bq     -0.00000     -0.00000     3.70000
bq     -0.00000     -0.00000     3.80000
bq     -0.00000     -0.00000     3.90000

