%NPROC=6
%MEM=6024MB
# B3LYP/6-311+G* NMR=GIAO INTEGRAL=(GRID=ULTRAFINE) CPHF=(GRID=FINE) POP=FULL SCF(MAXCYCLE=512)

---------------------------------------------------------- # Center 1

0 1
6   -1.25241   0.72951   -0.00000
6   -1.25241   -0.71560   0.00000
6   0.07750   -1.44035   0.00000
6   1.29190   -0.65704   0.00000
6   1.20948   0.69200   -0.00000
6   -0.07407   1.39148   -0.00000
1   -0.06085   2.47666   -0.00000
1   2.11425   1.29132   -0.00000
1   2.25273   -1.16122   0.00000
6   -0.13612   -2.77190   0.00000
6   -1.62766   -2.98676   0.00000
8   -2.20659   -4.04910   0.00000
6   -2.25559   -1.61688   0.00000
1   -3.32318   -1.44812   0.00000
1   0.58438   -3.57758   0.00000
1   -2.19691   1.26365   -0.00000
1   -1.32894   -0.67390   -0.99620
1   0.15403   -1.48206   -0.99619
1   -1.32772   0.77338   -0.99620
1   1.36959   -0.69655   -0.99620
1   1.28513   0.73528   -0.99620
1   -0.07870   1.47852   -0.99620
1   -0.07321   -2.83222   -0.99619
1   -1.66937   -3.06329   -0.99619
1   -2.34038   -1.59671   -0.99619
1   -2.24663   -4.12257   -0.95635
bq     -0.00000     0.00000     -0.00000
bq     -0.00000     0.00000     0.10000
bq     -0.00000     0.00000     0.20000
bq     -0.00000     0.00000     0.30000
bq     -0.00000     0.00000     0.40000
bq     -0.00000     0.00000     0.50000
bq     -0.00000     0.00000     0.60000
bq     -0.00000     0.00000     0.70000
bq     -0.00000     0.00000     0.80000
bq     -0.00000     0.00000     0.90000
bq     -0.00000     0.00000     1.00000
bq     -0.00000     0.00000     1.10000
bq     -0.00000     0.00000     1.20000
bq     -0.00000     0.00000     1.30000
bq     -0.00000     0.00000     1.40000
bq     -0.00000     0.00000     1.50000
bq     -0.00000     0.00000     1.60000
bq     -0.00000     0.00000     1.70000
bq     -0.00000     0.00000     1.80000
bq     -0.00000     0.00000     1.90000
bq     -0.00000     0.00000     2.00000
bq     -0.00000     0.00000     2.10000
bq     -0.00000     0.00000     2.20000
bq     -0.00000     0.00000     2.30000
bq     -0.00000     0.00000     2.40000
bq     -0.00000     0.00000     2.50000
bq     -0.00000     0.00000     2.60000
bq     -0.00000     0.00000     2.70000
bq     -0.00000     0.00000     2.80000
bq     -0.00000     0.00000     2.90000
bq     -0.00000     0.00000     3.00000
bq     -0.00000     0.00000     3.10000
bq     -0.00000     0.00000     3.20000
bq     -0.00000     0.00000     3.30000
bq     -0.00000     0.00000     3.40000
bq     -0.00000     0.00000     3.50000
bq     -0.00000     0.00000     3.60000
bq     -0.00000     0.00000     3.70000
bq     -0.00000     0.00000     3.80000
bq     -0.00000     0.00000     3.90000

