%NPROC=6
%MEM=6024MB
# B3LYP/6-311+G* NMR=GIAO INTEGRAL=(GRID=ULTRAFINE) CPHF=(GRID=FINE) POP=FULL SCF(MAXCYCLE=512)

---------------------------------------------------------- # Center 2

0 1
6   -0.21356   -2.63581   -0.00000
6   -0.21356   -1.19070   -0.00000
6   1.11636   -0.46595   -0.00000
6   2.33076   -1.24926   -0.00000
6   2.24833   -2.59830   -0.00000
6   0.96479   -3.29778   -0.00000
1   0.97800   -4.38296   -0.00000
1   3.15310   -3.19762   -0.00000
1   3.29158   -0.74508   -0.00000
6   0.90274   0.86560   0.00000
6   -0.58881   1.08046   0.00000
8   -1.16774   2.14280   0.00000
6   -1.21673   -0.28942   -0.00000
1   -2.28433   -0.45818   -0.00000
1   1.62324   1.67128   0.00000
1   -1.15805   -3.16995   -0.00000
1   -0.29009   -1.23240   0.99619
1   1.19289   -0.42424   0.99620
1   -0.28887   -2.67968   0.99619
1   2.40845   -1.20975   0.99619
1   2.32398   -2.64158   0.99619
1   0.96016   -3.38482   0.99619
1   0.96565   0.92592   0.99620
1   -0.63051   1.15699   0.99620
1   -1.30152   -0.30959   0.99620
1   -1.20777   2.21627   0.95635
bq     -0.00000     -0.00000     -0.00000
bq     -0.00000     -0.00000     -0.10000
bq     -0.00000     -0.00000     -0.20000
bq     -0.00000     -0.00000     -0.30000
bq     -0.00000     -0.00000     -0.40000
bq     -0.00000     -0.00000     -0.50000
bq     -0.00000     -0.00000     -0.60000
bq     -0.00000     -0.00000     -0.70000
bq     -0.00000     -0.00000     -0.80000
bq     -0.00000     -0.00000     -0.90000
bq     -0.00000     -0.00000     -1.00000
bq     -0.00000     -0.00000     -1.10000
bq     -0.00000     -0.00000     -1.20000
bq     -0.00000     -0.00000     -1.30000
bq     -0.00000     -0.00000     -1.40000
bq     -0.00000     -0.00000     -1.50000
bq     -0.00000     -0.00000     -1.60000
bq     -0.00000     -0.00000     -1.70000
bq     -0.00000     -0.00000     -1.80000
bq     -0.00000     -0.00000     -1.90000
bq     -0.00000     -0.00000     -2.00000
bq     -0.00000     -0.00000     -2.10000
bq     -0.00000     -0.00000     -2.20000
bq     -0.00000     -0.00000     -2.30000
bq     -0.00000     -0.00000     -2.40000
bq     -0.00000     -0.00000     -2.50000
bq     -0.00000     -0.00000     -2.60000
bq     -0.00000     -0.00000     -2.70000
bq     -0.00000     -0.00000     -2.80000
bq     -0.00000     -0.00000     -2.90000
bq     -0.00000     -0.00000     -3.00000
bq     -0.00000     -0.00000     -3.10000
bq     -0.00000     -0.00000     -3.20000
bq     -0.00000     -0.00000     -3.30000
bq     -0.00000     -0.00000     -3.40000
bq     -0.00000     -0.00000     -3.50000
bq     -0.00000     -0.00000     -3.60000
bq     -0.00000     -0.00000     -3.70000
bq     -0.00000     -0.00000     -3.80000
bq     -0.00000     -0.00000     -3.90000

