%NPROC=6
%MEM=6024MB
# B3LYP/6-311+G* NMR=GIAO INTEGRAL=(GRID=ULTRAFINE) CPHF=(GRID=FINE) POP=FULL SCF(MAXCYCLE=512)

----------------------------------------- # Center 2

0 1
6   2.21226   -1.44880   -0.00000
6   0.94333   -0.75729   -0.00000
6   0.94333   0.75729   -0.00000
6   2.21226   1.44880   -0.00000
6   3.35738   0.73088   -0.00000
6   3.35738   -0.73088   -0.00000
1   2.22931   -2.53373   -0.00000
1   2.22931   2.53373   -0.00000
1   4.31657   1.23856   -0.00000
1   4.31657   -1.23856   -0.00000
6   -1.23049   0.00000   0.00000
8   -2.44033   0.00000   0.00000
6   -0.32809   -1.20688   0.00000
1   -0.69077   -2.22507   0.00000
6   -0.32809   1.20688   0.00000
1   -0.69077   2.22507   0.00000
bq     0.00000     0.00000     0.00000
bq     0.00000     0.00000     0.10000
bq     0.00000     0.00000     0.20000
bq     0.00000     0.00000     0.30000
bq     0.00000     0.00000     0.40000
bq     0.00000     0.00000     0.50000
bq     0.00000     0.00000     0.60000
bq     0.00000     0.00000     0.70000
bq     0.00000     0.00000     0.80000
bq     0.00000     0.00000     0.90000
bq     0.00000     0.00000     1.00000
bq     0.00000     0.00000     1.10000
bq     0.00000     0.00000     1.20000
bq     0.00000     0.00000     1.30000
bq     0.00000     0.00000     1.40000
bq     0.00000     0.00000     1.50000
bq     0.00000     0.00000     1.60000
bq     0.00000     0.00000     1.70000
bq     0.00000     0.00000     1.80000
bq     0.00000     0.00000     1.90000
bq     0.00000     0.00000     2.00000
bq     0.00000     0.00000     2.10000
bq     0.00000     0.00000     2.20000
bq     0.00000     0.00000     2.30000
bq     0.00000     0.00000     2.40000
bq     0.00000     0.00000     2.50000
bq     0.00000     0.00000     2.60000
bq     0.00000     0.00000     2.70000
bq     0.00000     0.00000     2.80000
bq     0.00000     0.00000     2.90000
bq     0.00000     0.00000     3.00000
bq     0.00000     0.00000     3.10000
bq     0.00000     0.00000     3.20000
bq     0.00000     0.00000     3.30000
bq     0.00000     0.00000     3.40000
bq     0.00000     0.00000     3.50000
bq     0.00000     0.00000     3.60000
bq     0.00000     0.00000     3.70000
bq     0.00000     0.00000     3.80000
bq     0.00000     0.00000     3.90000

