%NPROC=6
%MEM=6024MB
# B3LYP/6-311+G* NMR=GIAO POP=FULL SCF(MAXCYCLE=512)

Compund 12 from Renana's XY Paper # Center 1

1 1
6   2.22113   -1.01550   0.00000
6   2.81048   0.24453   0.00000
6   2.01252   1.38387   0.00000
1   2.47559   2.36548   0.00000
6   0.60095   1.28665   0.00000
6   0.00011   0.00002   0.00000
6   0.81396   -1.16362   0.00000
6   0.19220   -2.43459   0.00000
6   -1.19355   -2.55591   0.00000
6   -0.23100   2.43112   0.00000
1   0.22416   3.41641   0.00000
6   -1.41480   -0.12302   0.00000
6   -1.61695   2.31141   0.00000
1   -2.23768   3.19922   0.00000
6   -2.20479   1.05070   0.00000
1   -3.28631   0.96048   0.00000
6   -1.99015   -1.41563   0.00000
1   -3.07097   -1.51422   0.00000
1   3.88966   0.33845   0.00000
1   2.84685   -1.90230   0.00000
1   0.81065   -3.32647   0.00000
1   -1.65191   -3.53745   0.00000
0     2.22113     -1.01550     1.70000
0     2.13019     -0.97392     1.70000
0     2.03924     -0.93234     1.70000
0     1.94830     -0.89076     1.70000
0     1.85735     -0.84918     1.70000
0     1.76641     -0.80760     1.70000
0     1.67546     -0.76602     1.70000
0     1.58452     -0.72444     1.70000
0     1.49357     -0.68286     1.70000
0     1.40263     -0.64128     1.70000
0     1.31168     -0.59970     1.70000
0     1.22073     -0.55812     1.70000
0     1.12979     -0.51654     1.70000
0     1.03884     -0.47496     1.70000
0     0.94790     -0.43338     1.70000
0     0.85695     -0.39180     1.70000
0     0.76601     -0.35022     1.70000
0     0.67506     -0.30864     1.70000
0     0.58412     -0.26706     1.70000
0     0.49317     -0.22548     1.70000
0     0.40223     -0.18390     1.70000
0     0.31128     -0.14232     1.70000
0     0.22033     -0.10074     1.70000
0     0.12939     -0.05916     1.70000
0     -0.00000     0.00000     1.70000
0     -0.09027     0.04302     1.70000
0     -0.18055     0.08604     1.70000
0     -0.27082     0.12906     1.70000
0     -0.36109     0.17208     1.70000
0     -0.45137     0.21510     1.70000
0     -0.54164     0.25812     1.70000
0     -0.63191     0.30114     1.70000
0     -0.72219     0.34416     1.70000
0     -0.81246     0.38718     1.70000
0     -0.90273     0.43020     1.70000
0     -0.99301     0.47322     1.70000
0     -1.08328     0.51624     1.70000
0     -1.17355     0.55926     1.70000
0     -1.26383     0.60228     1.70000
0     -1.35410     0.64530     1.70000
0     -1.44437     0.68832     1.70000
0     -1.53465     0.73134     1.70000
0     -1.62492     0.77436     1.70000
0     -1.71519     0.81738     1.70000
0     -1.80547     0.86040     1.70000
0     -1.89574     0.90342     1.70000
0     -1.98601     0.94645     1.70000
0     -2.07628     0.98947     1.70000

