%NPROC=6
%MEM=6024MB
# B3LYP/6-311+G* NMR=GIAO POP=FULL SCF(MAXCYCLE=512)

-------------------------------------------------- # Center 1

0 1
6   -1.21707   0.68725   -0.00000
6   -1.21707   -0.70379   0.00000
6   -0.01156   -1.39776   0.00000
1   -0.01514   -2.48311   0.00000
6   1.22587   -0.71165   0.00000
6   1.22501   0.70836   -0.00000
6   -0.00518   1.41759   -0.00000
6   0.01954   2.83229   -0.00000
6   1.22338   3.52928   -0.00000
6   2.42805   2.83389   -0.00000
6   2.45453   1.41926   -0.00000
6   3.66739   0.69078   -0.00000
6   3.66905   -0.70023   0.00000
6   2.46435   -1.39586   0.00000
1   2.46950   -2.48118   0.00000
1   4.60745   -1.24144   0.00000
1   4.60883   1.23072   -0.00000
1   3.36531   3.38111   -0.00000
1   1.22272   4.61257   -0.00000
1   -0.91852   3.37815   -0.00000
1   -2.15481   -1.24609   0.00000
1   -2.15957   1.22543   -0.00000
1   2.45453   1.41926   -1.00000
1   1.22587   -0.71165   -1.00000
1   1.22501   0.70836   -1.00000
1   -0.00518   1.41759   -1.00000
1   -1.29296   0.73011   -0.99620
1   -1.29252   -0.74742   -0.99620
1   -0.01228   -1.48491   -0.99619
1   3.74323   0.73374   -0.99620
1   3.74456   -0.74376   -0.99620
1   2.46518   -1.48301   -0.99619
1   -0.05558   2.87648   -0.99620
1   1.22333   3.61644   -0.99620
1   2.50311   2.87819   -0.99620
0     0.00000     0.00000     -0.00000
0     0.00000     0.00000     0.10000
0     0.00000     0.00000     0.20000
0     0.00000     0.00000     0.30000
0     0.00000     0.00000     0.40000
0     0.00000     0.00000     0.50000
0     0.00000     0.00000     0.60000
0     0.00000     0.00000     0.70000
0     0.00000     0.00000     0.80000
0     0.00000     0.00000     0.90000
0     0.00000     0.00000     1.00000
0     0.00000     0.00000     1.10000
0     0.00000     0.00000     1.20000
0     0.00000     0.00000     1.30000
0     0.00000     0.00000     1.40000
0     0.00000     0.00000     1.50000
0     0.00000     0.00000     1.60000
0     0.00000     0.00000     1.70000
0     0.00000     0.00000     1.80000
0     0.00000     0.00000     1.90000
0     0.00000     0.00000     2.00000
0     0.00000     0.00000     2.10000
0     0.00000     0.00000     2.20000
0     0.00000     0.00000     2.30000
0     0.00000     0.00000     2.40000
0     0.00000     0.00000     2.50000
0     0.00000     0.00000     2.60000
0     0.00000     0.00000     2.70000
0     0.00000     0.00000     2.80000
0     0.00000     0.00000     2.90000
0     0.00000     0.00000     3.00000
0     0.00000     0.00000     3.10000
0     0.00000     0.00000     3.20000
0     0.00000     0.00000     3.30000
0     0.00000     0.00000     3.40000
0     0.00000     0.00000     3.50000
0     0.00000     0.00000     3.60000
0     0.00000     0.00000     3.70000
0     0.00000     0.00000     3.80000
0     0.00000     0.00000     3.90000

