%NPROC=6
%MEM=6024MB
# B3LYP/6-311+G* NMR=GIAO POP=FULL SCF(MAXCYCLE=512)

-------------------------------------------------- # Center 1

0 1
6   -2.44129   1.43619   0.00000
6   -2.44129   2.82724   0.00000
6   -1.23578   3.52121   0.00000
1   -1.23936   4.60655   0.00000
6   0.00165   2.83510   0.00000
6   0.00079   1.41509   0.00000
6   -1.22940   0.70585   0.00000
6   -1.20468   -0.70884   -0.00000
6   -0.00084   -1.40584   -0.00000
6   1.20383   -0.71045   -0.00000
6   1.23031   0.70418   0.00000
6   2.44317   1.43266   0.00000
6   2.44483   2.82368   0.00000
6   1.24013   3.51930   0.00000
1   1.24527   4.60463   0.00000
1   3.38322   3.36489   0.00000
1   3.38461   0.89272   0.00000
1   2.14108   -1.25766   -0.00000
1   -0.00150   -2.48912   -0.00000
1   -2.14274   -1.25470   -0.00000
1   -3.37904   3.36953   0.00000
1   -3.38379   0.89801   0.00000
1   1.23031   0.70418   1.00000
1   0.00165   2.83510   1.00000
1   0.00079   1.41509   1.00000
1   -1.22940   0.70585   1.00000
1   -2.51719   1.39334   0.99620
1   -2.51674   2.87087   0.99620
1   -1.23650   3.60836   0.99620
1   2.51900   1.38971   0.99620
1   2.52034   2.86720   0.99620
1   1.24096   3.60645   0.99620
1   -1.27980   -0.75304   0.99620
1   -0.00089   -1.49299   0.99619
1   1.27889   -0.75474   0.99620
0     0.00165     2.83510     -1.70000
0     0.00159     2.73510     -1.70000
0     0.00153     2.63510     -1.70000
0     0.00147     2.53510     -1.70000
0     0.00141     2.43510     -1.70000
0     0.00135     2.33510     -1.70000
0     0.00129     2.23510     -1.70000
0     0.00123     2.13510     -1.70000
0     0.00117     2.03510     -1.70000
0     0.00110     1.93510     -1.70000
0     0.00104     1.83510     -1.70000
0     0.00098     1.73510     -1.70000
0     0.00092     1.63510     -1.70000
0     0.00086     1.53510     -1.70000
0     0.00079     1.41509     -1.70000
0     0.00073     1.31509     -1.70000
0     0.00068     1.21509     -1.70000
0     0.00062     1.11509     -1.70000
0     0.00057     1.01509     -1.70000
0     0.00051     0.91509     -1.70000
0     0.00045     0.81509     -1.70000
0     0.00040     0.71509     -1.70000
0     0.00034     0.61509     -1.70000
0     0.00029     0.51509     -1.70000
0     0.00023     0.41509     -1.70000
0     0.00018     0.31509     -1.70000
0     0.00012     0.21509     -1.70000
0     0.00006     0.11509     -1.70000
0     -0.00000     -0.00000     -1.70000
0     -0.00006     -0.10000     -1.70000
0     -0.00012     -0.20000     -1.70000
0     -0.00018     -0.30000     -1.70000
0     -0.00024     -0.40000     -1.70000
0     -0.00030     -0.50000     -1.70000
0     -0.00036     -0.60000     -1.70000
0     -0.00042     -0.70000     -1.70000
0     -0.00048     -0.80000     -1.70000
0     -0.00054     -0.90000     -1.70000
0     -0.00060     -1.00000     -1.70000
0     -0.00066     -1.10000     -1.70000
0     -0.00072     -1.20000     -1.70000
0     -0.00078     -1.30000     -1.70000

