%NPROC=6
%MEM=6024MB
# B3LYP/6-311+G* NMR=GIAO POP=FULL SCF(MAXCYCLE=512)

-------------------------------------------------- # Center 1

0 1
6   -2.44218   -0.02117   0.00000
6   -2.44218   -1.41222   0.00000
6   -1.23667   -2.10618   0.00000
1   -1.24024   -3.19153   0.00000
6   0.00077   -1.42007   0.00000
6   -0.00010   -0.00006   0.00000
6   -1.23029   0.70917   -0.00000
6   -1.20557   2.12386   -0.00000
6   -0.00173   2.82086   -0.00000
6   1.20295   2.12547   -0.00000
6   1.22942   0.71084   -0.00000
6   2.44229   -0.01764   0.00000
6   2.44394   -1.40866   0.00000
6   1.23924   -2.10428   0.00000
1   1.24439   -3.18960   0.00000
1   3.38234   -1.94986   0.00000
1   3.38372   0.52230   -0.00000
1   2.14020   2.67269   -0.00000
1   -0.00238   3.90415   -0.00000
1   -2.14363   2.66972   -0.00000
1   -3.37992   -1.95451   0.00000
1   -3.38467   0.51701   -0.00000
1   1.22942   0.71084   -1.00000
1   0.00077   -1.42007   -1.00000
1   -0.00010   -0.00006   -1.00000
1   -1.23029   0.70917   -1.00000
1   -2.51807   0.02168   -0.99620
1   -2.51763   -1.45585   -0.99619
1   -1.23739   -2.19333   -0.99619
1   2.51812   0.02532   -0.99620
1   2.51945   -1.45218   -0.99619
1   1.24007   -2.19143   -0.99619
1   -1.28069   2.16806   -0.99620
1   -0.00178   2.90802   -0.99620
1   1.27801   2.16977   -0.99620
0     -2.44218     -0.02117     1.70000
0     -2.34218     -0.02030     1.70000
0     -2.24219     -0.01944     1.70000
0     -2.14219     -0.01857     1.70000
0     -2.04219     -0.01770     1.70000
0     -1.94220     -0.01684     1.70000
0     -1.84220     -0.01597     1.70000
0     -1.74221     -0.01510     1.70000
0     -1.64221     -0.01424     1.70000
0     -1.54221     -0.01337     1.70000
0     -1.44222     -0.01250     1.70000
0     -1.34222     -0.01163     1.70000
0     -1.24222     -0.01077     1.70000
0     -1.14223     -0.00990     1.70000
0     -1.04223     -0.00903     1.70000
0     -0.94224     -0.00817     1.70000
0     -0.84224     -0.00730     1.70000
0     -0.74224     -0.00643     1.70000
0     -0.64225     -0.00557     1.70000
0     -0.54225     -0.00470     1.70000
0     -0.44225     -0.00383     1.70000
0     -0.34226     -0.00297     1.70000
0     -0.24226     -0.00210     1.70000
0     -0.14227     -0.00123     1.70000
0     -0.00000     0.00000     1.70000
0     0.10000     -0.00072     1.70000
0     0.19999     -0.00144     1.70000
0     0.29999     -0.00217     1.70000
0     0.39999     -0.00289     1.70000
0     0.49999     -0.00361     1.70000
0     0.59998     -0.00433     1.70000
0     0.69998     -0.00506     1.70000
0     0.79998     -0.00578     1.70000
0     0.89998     -0.00650     1.70000
0     0.99997     -0.00722     1.70000
0     1.09997     -0.00794     1.70000
0     1.19997     -0.00867     1.70000
0     1.29997     -0.00939     1.70000
0     1.39996     -0.01011     1.70000
0     1.49996     -0.01083     1.70000
0     1.59996     -0.01156     1.70000
0     1.69996     -0.01228     1.70000
0     1.79995     -0.01300     1.70000
0     1.89995     -0.01372     1.70000
0     1.99995     -0.01444     1.70000
0     2.09995     -0.01517     1.70000
0     2.19994     -0.01589     1.70000
0     2.29994     -0.01661     1.70000

