%NPROC=6
%MEM=6024MB
# B3LYP/6-311+G* NMR=GIAO POP=FULL SCF(MAXCYCLE=512)

Compund 12 from Renana's XY Paper # Center 1

1 1
6   -2.81984   -0.26662   0.00000
6   -3.40918   -1.52665   0.00000
6   -2.61122   -2.66600   0.00000
1   -3.07430   -3.64761   0.00000
6   -1.19965   -2.56878   0.00000
6   -0.59882   -1.28214   0.00000
6   -1.41266   -0.11851   0.00000
6   -0.79091   1.15247   0.00000
6   0.59485   1.27379   -0.00000
6   -0.36770   -3.71325   0.00000
1   -0.82286   -4.69853   0.00000
6   0.81609   -1.15911   0.00000
6   1.01825   -3.59354   0.00000
1   1.63897   -4.48134   0.00000
6   1.60608   -2.33283   0.00000
1   2.68761   -2.24260   0.00000
6   1.39145   0.13351   -0.00000
1   2.47226   0.23209   -0.00000
1   -4.48836   -1.62058   0.00000
1   -3.44555   0.62018   0.00000
1   -1.40935   2.04434   0.00000
1   1.05321   2.25532   -0.00000
0     -1.19965     -2.56878     -1.70000
0     -1.15734     -2.47817     -1.70000
0     -1.11503     -2.38756     -1.70000
0     -1.07272     -2.29695     -1.70000
0     -1.03040     -2.20635     -1.70000
0     -0.98809     -2.11574     -1.70000
0     -0.94578     -2.02513     -1.70000
0     -0.90347     -1.93452     -1.70000
0     -0.86116     -1.84392     -1.70000
0     -0.81884     -1.75331     -1.70000
0     -0.77653     -1.66270     -1.70000
0     -0.73422     -1.57209     -1.70000
0     -0.69191     -1.48149     -1.70000
0     -0.64959     -1.39088     -1.70000
0     -0.59882     -1.28214     -1.70000
0     -0.55650     -1.19154     -1.70000
0     -0.51418     -1.10093     -1.70000
0     -0.47187     -1.01033     -1.70000
0     -0.42955     -0.91972     -1.70000
0     -0.38723     -0.82912     -1.70000
0     -0.34492     -0.73851     -1.70000
0     -0.30260     -0.64791     -1.70000
0     -0.26028     -0.55730     -1.70000
0     -0.21797     -0.46669     -1.70000
0     -0.17565     -0.37609     -1.70000
0     -0.13333     -0.28548     -1.70000
0     -0.09102     -0.19488     -1.70000
0     -0.04870     -0.10427     -1.70000
0     0.00000     -0.00000     -1.70000
0     0.04231     0.09061     -1.70000
0     0.08463     0.18121     -1.70000
0     0.12694     0.27182     -1.70000
0     0.16925     0.36243     -1.70000
0     0.21156     0.45303     -1.70000
0     0.25388     0.54364     -1.70000
0     0.29619     0.63425     -1.70000
0     0.33850     0.72486     -1.70000
0     0.38082     0.81546     -1.70000
0     0.42313     0.90607     -1.70000
0     0.46544     0.99668     -1.70000
0     0.50775     1.08728     -1.70000
0     0.55007     1.17789     -1.70000

