%NPROC=6
%MEM=6024MB
# B3LYP/6-311+G* NMR=GIAO POP=FULL SCF(MAXCYCLE=512)

Compund 12 from Renana's XY Paper # Center 1

1 1
6   0.81127   -1.13816   0.00000
6   1.40062   0.12187   0.00000
6   0.60266   1.26122   0.00000
1   1.06573   2.24282   0.00000
6   -0.80891   1.16399   0.00000
6   -1.40975   -0.12264   0.00000
6   -0.59590   -1.28627   0.00000
6   -1.21766   -2.55725   0.00000
6   -2.60341   -2.67857   0.00000
6   -1.64086   2.30846   0.00000
1   -1.18570   3.29375   0.00000
6   -2.82465   -0.24568   0.00000
6   -3.02681   2.18875   0.00000
1   -3.64754   3.07656   0.00000
6   -3.61465   0.92805   0.00000
1   -4.69617   0.83782   0.00000
6   -3.40001   -1.53829   0.00000
1   -4.48083   -1.63688   0.00000
1   2.47980   0.21579   0.00000
1   1.43699   -2.02496   0.00000
1   -0.59921   -3.44913   0.00000
1   -3.06177   -3.66011   0.00000
0     -0.00000     -0.00000     0.00000
0     -0.00000     -0.00000     0.10000
0     -0.00000     -0.00000     0.20000
0     -0.00000     -0.00000     0.30000
0     -0.00000     -0.00000     0.40000
0     -0.00000     -0.00000     0.50000
0     -0.00000     -0.00000     0.60000
0     -0.00000     -0.00000     0.70000
0     -0.00000     -0.00000     0.80000
0     -0.00000     -0.00000     0.90000
0     -0.00000     -0.00000     1.00000
0     -0.00000     -0.00000     1.10000
0     -0.00000     -0.00000     1.20000
0     -0.00000     -0.00000     1.30000
0     -0.00000     -0.00000     1.40000
0     -0.00000     -0.00000     1.50000
0     -0.00000     -0.00000     1.60000
0     -0.00000     -0.00000     1.70000
0     -0.00000     -0.00000     1.80000
0     -0.00000     -0.00000     1.90000
0     -0.00000     -0.00000     2.00000
0     -0.00000     -0.00000     2.10000
0     -0.00000     -0.00000     2.20000
0     -0.00000     -0.00000     2.30000
0     -0.00000     -0.00000     2.40000
0     -0.00000     -0.00000     2.50000
0     -0.00000     -0.00000     2.60000
0     -0.00000     -0.00000     2.70000
0     -0.00000     -0.00000     2.80000
0     -0.00000     -0.00000     2.90000
0     -0.00000     -0.00000     3.00000
0     -0.00000     -0.00000     3.10000
0     -0.00000     -0.00000     3.20000
0     -0.00000     -0.00000     3.30000
0     -0.00000     -0.00000     3.40000
0     -0.00000     -0.00000     3.50000
0     -0.00000     -0.00000     3.60000
0     -0.00000     -0.00000     3.70000
0     -0.00000     -0.00000     3.80000
0     -0.00000     -0.00000     3.90000

